data/CVRPLIB/Vrp-Set-XML100/instances/XML100_2315_26.vrp
NAME : XML100_2315_26
COMMENT : Generated by Queiroga, Sadykov, Uchoa, and Vidal (2021)
TYPE : CVRP
DIMENSION : 101
EDGE_WEIGHT_TYPE : EUC_2D
CAPACITY : 19
NODE_COORD_SECTION
1    500  500 
2    123  570 
3    108  258 
4    214  474 
5    826  866 
6    335  956 
7    165  481 
8    332  282 
9    321  255 
10   807  452 
11   36   761 
12   390  301 
13   523  249 
14   40   560 
15   12   942 
16   475  184 
17   600  166 
18   572  200 
19   2    384 
20   916  329 
21   51   739 
22   267  153 
23   195  110 
24   340  720 
25   211  895 
26   193  474 
27   227  456 
28   27   743 
29   166  729 
30   154  551 
31   154  400 
32   31   213 
33   949  14  
34   527  310 
35   196  518 
36   390  299 
37   351  819 
38   198  397 
39   134  270 
40   792  522 
41   853  851 
42   46   336 
43   652  224 
44   66   392 
45   217  469 
46   87   344 
47   852  877 
48   190  641 
49   112  350 
50   742  557 
51   642  848 
52   967  344 
53   138  370 
54   300  878 
55   168  686 
56   296  525 
57   375  285 
58   772  209 
59   300  375 
60   89   362 
61   350  449 
62   83   465 
63   385  900 
64   239  445 
65   658  617 
66   388  276 
67   254  88  
68   77   363 
69   861  402 
70   322  798 
71   581  365 
72   117  355 
73   436  266 
74   203  417 
75   827  382 
76   866  728 
77   773  386 
78   232  451 
79   896  634 
80   910  876 
81   640  400 
82   244  70  
83   201  485 
84   24   512 
85   111  771 
86   916  225 
87   173  864 
88   433  271 
89   642  6   
90   985  722 
91   785  989 
92   226  471 
93   142  353 
94   191  685 
95   845  253 
96   53   277 
97   36   358 
98   33   388 
99   666  418 
100  956  673 
101  291  410 
DEMAND_SECTION
1    0   
2    1   
3    1   
4    1   
5    1   
6    1   
7    1   
8    1   
9    1   
10   1   
11   1   
12   1   
13   1   
14   1   
15   1   
16   1   
17   1   
18   1   
19   1   
20   1   
21   1   
22   1   
23   1   
24   1   
25   1   
26   1   
27   1   
28   1   
29   1   
30   1   
31   1   
32   1   
33   1   
34   1   
35   1   
36   1   
37   1   
38   1   
39   1   
40   1   
41   1   
42   1   
43   1   
44   1   
45   1   
46   1   
47   1   
48   1   
49   1   
50   1   
51   1   
52   1   
53   1   
54   1   
55   1   
56   1   
57   1   
58   1   
59   1   
60   1   
61   1   
62   1   
63   1   
64   1   
65   1   
66   1   
67   1   
68   1   
69   1   
70   1   
71   1   
72   1   
73   1   
74   1   
75   1   
76   1   
77   1   
78   1   
79   1   
80   1   
81   1   
82   1   
83   1   
84   1   
85   1   
86   1   
87   1   
88   1   
89   1   
90   1   
91   1   
92   1   
93   1   
94   1   
95   1   
96   1   
97   1   
98   1   
99   1   
100  1   
101  1   
DEPOT_SECTION
1
-1
EOF
