data/CVRPLIB/Vrp-Set-XML100/solutions/XML100_2315_26.sol
Route #1: 47 93 54 28 84 20 27 10 14 86 24 53 5 62 36 69 23
Route #2: 55 34 29 1 13 83 61 6 25 82 3 44 91 26 77 63 100 58 60
Route #3: 64 49 39 78 99 89 75 79 46 40 4 90 50
Route #4: 33 12 15 66 81 22 21 8 7 56 11 35 65 72 87
Route #5: 70 42 17 16 88 32 57 94 85 51 19 68 74 9 76 98 80
Route #6: 38 2 31 95 41 96 18 97 43 67 59 45 48 71 92 52 30 37 73
Cost 9385
